NAME : X-n957-50-k44
COMMENT : "Generated by Queiroga, Frota, Sadykov, Subramanian, Uchoa and Vidal (2019)" 
TYPE : CVRP
DIMENSION : 957
EDGE_WEIGHT_TYPE : EUC_2D
CAPACITY : 11
NODE_COORD_SECTION
1 -1 737 450
2 0 235 789
3 0 340 234
4 0 346 320
5 0 406 309
6 0 556 636
7 0 872 923
8 0 937 83
9 0 9 321
10 0 558 18
11 0 63 833
12 0 250 509
13 0 143 192
14 0 624 286
15 0 364 117
16 0 332 953
17 0 235 142
18 0 590 430
19 0 303 692
20 0 936 665
21 0 39 410
22 0 247 581
23 0 986 739
24 0 11 283
25 0 138 747
26 0 837 511
27 0 596 206
28 0 218 339
29 0 443 922
30 0 555 133
31 0 896 306
32 0 415 752
33 0 691 216
34 0 51 0
35 0 726 19
36 0 166 333
37 0 951 932
38 0 928 807
39 0 505 590
40 0 236 284
41 0 115 882
42 0 238 887
43 0 729 26
44 0 94 697
45 0 409 899
46 0 993 715
47 0 473 607
48 0 414 55
49 0 884 327
50 0 651 407
51 0 891 372
52 0 570 733
53 0 919 529
54 0 629 220
55 0 711 630
56 0 141 492
57 0 720 382
58 0 794 51
59 0 745 451
60 0 409 990
61 0 825 781
62 0 966 938
63 0 378 175
64 0 859 269
65 0 596 131
66 0 419 557
67 0 77 908
68 0 679 268
69 0 726 860
70 0 382 728
71 0 885 15
72 0 258 313
73 0 734 905
74 0 533 912
75 0 924 636
76 0 694 621
77 0 469 223
78 0 507 707
79 0 892 168
80 0 281 800
81 0 607 285
82 0 388 354
83 0 568 781
84 0 22 348
85 0 153 579
86 0 218 236
87 0 308 904
88 0 119 154
89 0 939 105
90 0 489 374
91 0 547 736
92 0 480 1000
93 0 124 883
94 0 647 930
95 0 295 741
96 0 213 53
97 0 701 446
98 0 589 708
99 0 644 147
100 0 133 377
101 0 983 343
102 0 169 651
103 0 262 450
104 0 255 422
105 0 115 640
106 0 693 344
107 0 896 910
108 0 298 531
109 0 573 416
110 0 416 512
111 0 870 50
112 0 185 436
113 0 656 268
114 0 53 522
115 0 587 165
116 0 542 762
117 0 995 809
118 0 266 878
119 0 27 812
120 0 196 522
121 0 45 164
122 0 174 729
123 0 252 311
124 0 681 621
125 0 594 478
126 0 848 361
127 0 897 253
128 0 729 354
129 0 255 410
130 0 811 703
131 0 677 991
132 0 781 909
133 0 971 632
134 0 540 824
135 0 887 144
136 0 475 860
137 0 509 336
138 0 967 433
139 0 897 98
140 0 157 676
141 0 971 727
142 0 972 381
143 0 658 504
144 0 375 214
145 0 280 526
146 0 895 158
147 0 196 779
148 0 379 223
149 0 692 470
150 0 22 395
151 0 119 604
152 0 622 843
153 0 289 811
154 0 98 365
155 0 111 426
156 0 261 101
157 0 483 818
158 0 820 480
159 0 433 961
160 0 656 421
161 0 511 273
162 0 334 794
163 0 426 686
164 0 870 112
165 0 941 978
166 0 744 498
167 0 7 346
168 0 168 877
169 0 166 244
170 0 604 430
171 0 176 452
172 0 522 306
173 0 912 406
174 0 423 564
175 0 505 779
176 0 101 383
177 0 729 307
178 0 162 515
179 0 647 869
180 0 784 983
181 0 496 811
182 0 736 39
183 0 833 529
184 0 646 367
185 0 922 294
186 0 513 535
187 0 373 331
188 0 471 694
189 0 39 149
190 0 813 538
191 0 153 115
192 0 244 505
193 0 716 286
194 0 409 228
195 0 140 484
196 0 652 239
197 0 141 628
198 0 30 924
199 0 877 307
200 0 586 723
201 0 336 615
202 0 856 584
203 0 984 221
204 0 641 671
205 0 648 704
206 0 19 309
207 0 661 125
208 0 614 194
209 0 253 864
210 0 106 841
211 0 187 687
212 0 5 289
213 0 657 83
214 0 658 58
215 0 419 839
216 0 519 347
217 0 191 864
218 0 666 486
219 0 288 276
220 0 562 646
221 0 516 725
222 0 75 785
223 0 309 966
224 0 743 856
225 0 121 698
226 0 286 258
227 0 70 635
228 0 376 539
229 0 824 834
230 0 650 350
231 0 742 277
232 0 977 647
233 0 268 698
234 0 973 145
235 0 569 655
236 0 765 22
237 0 427 869
238 0 11 869
239 0 377 793
240 0 162 897
241 0 102 444
242 0 979 386
243 0 69 483
244 0 294 395
245 0 424 536
246 0 37 705
247 0 126 782
248 0 490 30
249 0 348 771
250 0 808 469
251 0 107 512
252 0 782 207
253 0 161 793
254 0 859 469
255 0 148 763
256 0 403 723
257 0 978 760
258 0 214 132
259 0 467 387
260 0 292 262
261 0 238 846
262 0 853 27
263 0 855 506
264 0 591 902
265 0 213 742
266 0 203 364
267 0 183 3
268 0 143 608
269 0 501 152
270 0 649 492
271 0 904 31
272 0 997 741
273 0 527 299
274 0 26 402
275 0 543 506
276 0 902 548
277 0 47 419
278 0 125 226
279 0 206 608
280 0 811 668
281 0 643 265
282 0 189 736
283 0 79 287
284 0 382 630
285 0 225 604
286 0 412 843
287 0 924 756
288 0 474 356
289 0 533 721
290 0 445 101
291 0 579 994
292 0 652 658
293 0 633 914
294 0 889 206
295 0 464 243
296 0 680 735
297 0 420 998
298 0 798 490
299 0 75 518
300 0 27 680
301 0 118 804
302 0 181 428
303 0 489 91
304 0 367 977
305 0 777 679
306 0 501 137
307 0 856 6
308 0 75 999
309 0 777 984
310 0 171 874
311 0 909 569
312 0 730 509
313 0 326 596
314 0 59 533
315 0 455 853
316 0 612 163
317 0 959 409
318 0 987 154
319 0 883 195
320 0 207 6
321 0 39 831
322 0 227 416
323 0 657 701
324 0 703 976
325 0 260 286
326 0 6 135
327 0 821 740
328 0 491 397
329 0 140 716
330 0 6 773
331 0 497 447
332 0 666 487
333 0 529 74
334 0 860 929
335 0 384 223
336 0 524 854
337 0 102 833
338 0 653 843
339 0 260 234
340 0 66 997
341 0 864 478
342 0 425 897
343 0 482 914
344 0 497 805
345 0 646 13
346 0 670 113
347 0 483 458
348 0 722 56
349 0 611 456
350 0 832 655
351 0 275 331
352 0 851 924
353 0 746 341
354 0 811 324
355 0 950 762
356 0 697 467
357 0 368 215
358 0 458 65
359 0 174 245
360 0 277 138
361 0 624 145
362 0 80 463
363 0 696 41
364 0 309 279
365 0 985 212
366 0 934 241
367 0 839 676
368 0 717 623
369 0 752 11
370 0 732 768
371 0 5 440
372 0 125 793
373 0 556 154
374 0 137 547
375 0 178 892
376 0 363 804
377 0 855 769
378 0 269 726
379 0 415 353
380 0 961 560
381 0 432 998
382 0 197 594
383 0 354 413
384 0 655 357
385 0 903 500
386 0 446 77
387 0 710 425
388 0 883 381
389 0 208 950
390 0 493 246
391 0 776 9
392 0 286 208
393 0 119 538
394 0 267 810
395 0 924 550
396 0 207 306
397 0 734 468
398 0 654 618
399 0 102 700
400 0 196 533
401 0 978 464
402 0 987 161
403 0 342 874
404 0 501 638
405 0 105 260
406 0 557 72
407 0 246 754
408 0 577 758
409 0 200 110
410 0 107 621
411 0 501 789
412 0 581 925
413 0 672 281
414 0 333 221
415 0 366 691
416 0 871 557
417 0 759 559
418 0 384 926
419 0 184 941
420 0 512 969
421 0 29 740
422 0 361 929
423 0 874 282
424 0 769 858
425 0 878 141
426 0 820 64
427 0 429 224
428 0 611 820
429 0 26 93
430 0 268 308
431 0 426 545
432 0 211 836
433 0 28 441
434 0 669 276
435 0 519 784
436 0 445 780
437 0 762 46
438 0 935 724
439 0 937 750
440 0 390 916
441 0 934 288
442 0 435 47
443 0 990 14
444 0 830 399
445 0 581 559
446 0 490 787
447 0 564 416
448 0 748 774
449 0 566 767
450 0 873 118
451 0 626 559
452 0 833 478
453 0 82 836
454 0 311 362
455 0 718 313
456 0 975 337
457 0 148 207
458 0 986 476
459 0 463 313
460 0 769 67
461 0 114 335
462 0 28 562
463 0 59 461
464 0 12 780
465 0 154 192
466 0 27 360
467 0 787 422
468 0 206 469
469 0 774 765
470 0 521 751
471 0 499 129
472 0 52 528
473 0 304 554
474 0 502 257
475 0 131 279
476 0 960 233
477 0 408 79
478 0 917 541
479 0 195 837
480 1 536 257
481 1 573 374
482 1 163 907
483 1 282 530
484 1 143 982
485 1 182 1000
486 1 506 298
487 1 410 452
488 1 495 313
489 1 577 549
490 1 474 280
491 1 295 775
492 1 179 898
493 1 626 568
494 1 196 516
495 1 754 367
496 1 53 627
497 1 263 962
498 1 252 558
499 1 122 892
500 1 657 277
501 1 267 505
502 1 234 594
503 1 366 471
504 1 197 863
505 1 512 375
506 1 239 454
507 1 541 224
508 1 601 365
509 1 505 354
510 1 500 422
511 1 707 336
512 1 273 546
513 1 527 276
514 1 322 525
515 1 91 411
516 1 85 871
517 1 688 231
518 1 320 507
519 1 526 472
520 1 477 320
521 1 329 491
522 1 196 877
523 1 172 870
524 1 584 428
525 1 598 346
526 1 476 354
527 1 180 863
528 1 473 213
529 1 422 21
530 1 192 866
531 1 594 342
532 1 218 531
533 1 533 262
534 1 330 99
535 1 141 952
536 1 608 516
537 1 554 243
538 1 435 353
539 1 209 560
540 1 408 228
541 1 241 919
542 1 80 811
543 1 513 278
544 1 429 712
545 1 458 313
546 1 330 226
547 1 148 941
548 1 468 293
549 1 247 375
550 1 619 32
551 1 671 277
552 1 382 441
553 1 403 542
554 1 521 294
555 1 522 435
556 1 473 216
557 1 572 236
558 1 224 863
559 1 550 379
560 1 183 428
561 1 568 347
562 1 156 944
563 1 555 327
564 1 293 641
565 1 568 173
566 1 529 560
567 1 532 163
568 1 760 446
569 1 564 214
570 1 240 624
571 1 431 401
572 1 719 272
573 1 493 338
574 1 513 305
575 1 58 940
576 1 569 412
577 1 357 402
578 1 495 188
579 1 618 412
580 1 194 844
581 1 416 250
582 1 610 341
583 1 788 91
584 1 275 569
585 1 658 479
586 1 231 504
587 1 93 683
588 1 648 191
589 1 155 877
590 1 692 379
591 1 291 501
592 1 603 359
593 1 65 935
594 1 308 1000
595 1 655 499
596 1 605 328
597 1 750 582
598 1 588 234
599 1 601 327
600 1 488 236
601 1 505 403
602 1 565 242
603 1 566 428
604 1 599 351
605 1 68 979
606 1 199 868
607 1 574 331
608 1 177 583
609 1 246 760
610 1 233 820
611 1 450 497
612 1 369 620
613 1 98 932
614 1 164 880
615 1 378 219
616 1 183 868
617 1 528 489
618 1 228 852
619 1 381 89
620 1 355 930
621 1 235 927
622 1 458 212
623 1 532 252
624 1 529 385
625 1 179 971
626 1 228 583
627 1 481 409
628 1 250 951
629 1 550 450
630 1 516 526
631 1 250 804
632 1 535 225
633 1 209 808
634 1 275 671
635 1 170 388
636 1 514 280
637 1 692 415
638 1 405 186
639 1 494 319
640 1 527 341
641 1 655 311
642 1 514 583
643 1 208 584
644 1 625 472
645 1 280 735
646 1 368 535
647 1 3 597
648 1 74 556
649 1 492 190
650 1 644 366
651 1 125 280
652 1 512 487
653 1 491 334
654 1 558 227
655 1 306 641
656 1 516 417
657 1 130 940
658 1 728 321
659 1 586 250
660 1 163 510
661 1 325 804
662 1 634 395
663 1 497 506
664 1 277 608
665 1 354 927
666 1 205 986
667 1 570 356
668 1 610 370
669 1 582 278
670 1 264 442
671 1 141 967
672 1 292 250
673 1 286 573
674 1 102 989
675 1 113 287
676 1 93 921
677 1 558 356
678 1 501 576
679 1 252 987
680 1 670 319
681 1 500 304
682 1 479 583
683 1 74 907
684 1 88 945
685 1 461 302
686 1 299 562
687 1 139 808
688 1 576 358
689 1 540 167
690 1 619 292
691 1 588 254
692 1 678 278
693 1 337 525
694 1 327 517
695 1 410 380
696 1 447 579
697 1 214 521
698 1 537 246
699 1 596 421
700 1 131 919
701 1 711 456
702 1 333 359
703 1 668 356
704 1 225 531
705 1 320 932
706 1 566 207
707 1 238 331
708 1 344 596
709 1 544 305
710 1 316 530
711 1 666 352
712 1 671 214
713 1 508 266
714 1 389 596
715 1 408 282
716 1 198 849
717 1 439 346
718 1 186 797
719 1 407 355
720 1 184 615
721 1 642 467
722 1 226 880
723 1 557 251
724 1 252 556
725 1 192 502
726 1 637 316
727 1 494 209
728 1 282 556
729 1 362 596
730 1 123 748
731 1 405 524
732 1 579 333
733 1 604 519
734 1 500 194
735 1 578 394
736 1 290 691
737 1 16 824
738 1 122 921
739 1 664 191
740 1 482 371
741 1 508 82
742 1 478 725
743 1 521 464
744 1 115 585
745 1 461 356
746 1 630 209
747 1 499 288
748 1 503 407
749 1 643 278
750 1 670 494
751 1 215 911
752 1 571 374
753 1 519 219
754 1 270 798
755 1 554 399
756 1 514 232
757 1 139 900
758 1 212 485
759 1 481 272
760 1 565 323
761 1 84 435
762 1 508 204
763 1 608 283
764 1 474 478
765 1 613 272
766 1 526 251
767 1 275 474
768 1 549 526
769 1 128 956
770 1 229 882
771 1 253 521
772 1 63 939
773 1 622 245
774 1 656 232
775 1 116 930
776 1 277 581
777 1 253 812
778 1 171 909
779 1 454 558
780 1 597 343
781 1 176 526
782 1 397 522
783 1 660 200
784 1 532 255
785 1 574 213
786 1 319 535
787 1 688 407
788 1 470 141
789 1 475 401
790 1 133 913
791 1 131 896
792 1 606 292
793 1 623 382
794 1 509 413
795 1 168 834
796 1 626 343
797 1 344 495
798 1 300 624
799 1 178 795
800 1 321 965
801 1 437 899
802 1 470 151
803 1 343 576
804 1 265 545
805 1 643 266
806 1 242 679
807 1 592 292
808 1 563 318
809 1 553 284
810 1 398 315
811 1 356 814
812 1 333 236
813 1 508 179
814 1 460 532
815 1 267 520
816 1 618 473
817 1 237 292
818 1 564 407
819 1 477 269
820 1 480 478
821 1 0 879
822 1 271 557
823 1 568 415
824 1 520 320
825 1 644 280
826 1 299 943
827 1 377 474
828 1 282 495
829 1 642 304
830 1 410 533
831 1 699 373
832 1 320 373
833 1 223 972
834 1 266 512
835 1 451 452
836 1 661 386
837 1 155 908
838 1 283 574
839 1 504 387
840 1 329 539
841 1 583 527
842 1 198 544
843 1 387 439
844 1 599 274
845 1 554 410
846 1 649 140
847 1 715 73
848 1 349 471
849 1 664 345
850 1 542 330
851 1 546 320
852 1 214 857
853 1 583 268
854 1 531 224
855 1 270 955
856 1 182 583
857 1 70 547
858 1 154 923
859 1 751 545
860 1 325 263
861 1 562 311
862 1 587 472
863 1 331 307
864 1 558 377
865 1 159 909
866 1 562 324
867 1 563 275
868 1 386 644
869 1 621 387
870 1 656 400
871 1 120 907
872 1 260 910
873 1 343 471
874 1 467 416
875 1 571 350
876 1 534 235
877 1 632 287
878 1 327 472
879 1 498 312
880 1 292 527
881 1 564 368
882 1 417 404
883 1 473 358
884 1 44 941
885 1 323 246
886 1 683 364
887 1 289 536
888 1 347 492
889 1 156 911
890 1 183 553
891 1 613 381
892 1 514 281
893 1 293 971
894 1 171 190
895 1 168 960
896 1 410 446
897 1 146 893
898 1 208 941
899 1 244 521
900 1 340 856
901 1 516 521
902 1 596 289
903 1 599 257
904 1 366 504
905 1 391 390
906 1 602 631
907 1 453 376
908 1 367 488
909 1 448 189
910 1 563 289
911 1 599 328
912 1 530 131
913 1 509 482
914 1 340 432
915 1 242 924
916 1 424 414
917 1 186 848
918 1 658 496
919 1 452 224
920 1 401 652
921 1 145 832
922 1 574 238
923 1 254 592
924 1 477 236
925 1 150 541
926 1 224 670
927 1 583 361
928 1 521 244
929 1 125 870
930 1 649 282
931 1 204 917
932 1 280 550
933 1 571 243
934 1 594 407
935 1 501 372
936 1 634 289
937 1 608 220
938 1 307 478
939 1 618 428
940 1 532 276
941 1 47 856
942 1 569 319
943 1 300 609
944 1 348 569
945 1 351 637
946 1 562 210
947 1 708 471
948 1 212 920
949 1 448 523
950 1 320 640
951 1 451 379
952 1 294 497
953 1 616 295
954 1 249 810
955 1 299 505
956 1 550 289
957 1 347 720
DEMAND_SECTION
1 0
2 1
3 1
4 1
5 1
6 1
7 1
8 1
9 1
10 1
11 1
12 1
13 1
14 1
15 1
16 1
17 1
18 1
19 1
20 1
21 1
22 1
23 1
24 1
25 1
26 1
27 1
28 1
29 1
30 1
31 1
32 1
33 1
34 1
35 1
36 1
37 1
38 1
39 1
40 1
41 1
42 1
43 1
44 1
45 1
46 1
47 1
48 1
49 1
50 1
51 1
52 1
53 1
54 1
55 1
56 1
57 1
58 1
59 1
60 1
61 1
62 1
63 1
64 1
65 1
66 1
67 1
68 1
69 1
70 1
71 1
72 1
73 1
74 1
75 1
76 1
77 1
78 1
79 1
80 1
81 1
82 1
83 1
84 1
85 1
86 1
87 1
88 1
89 1
90 1
91 1
92 1
93 1
94 1
95 1
96 1
97 1
98 1
99 1
100 1
101 1
102 1
103 1
104 1
105 1
106 1
107 1
108 1
109 1
110 1
111 1
112 1
113 1
114 1
115 1
116 1
117 1
118 1
119 1
120 1
121 1
122 1
123 1
124 1
125 1
126 1
127 1
128 1
129 1
130 1
131 1
132 1
133 1
134 1
135 1
136 1
137 1
138 1
139 1
140 1
141 1
142 1
143 1
144 1
145 1
146 1
147 1
148 1
149 1
150 1
151 1
152 1
153 1
154 1
155 1
156 1
157 1
158 1
159 1
160 1
161 1
162 1
163 1
164 1
165 1
166 1
167 1
168 1
169 1
170 1
171 1
172 1
173 1
174 1
175 1
176 1
177 1
178 1
179 1
180 1
181 1
182 1
183 1
184 1
185 1
186 1
187 1
188 1
189 1
190 1
191 1
192 1
193 1
194 1
195 1
196 1
197 1
198 1
199 1
200 1
201 1
202 1
203 1
204 1
205 1
206 1
207 1
208 1
209 1
210 1
211 1
212 1
213 1
214 1
215 1
216 1
217 1
218 1
219 1
220 1
221 1
222 1
223 1
224 1
225 1
226 1
227 1
228 1
229 1
230 1
231 1
232 1
233 1
234 1
235 1
236 1
237 1
238 1
239 1
240 1
241 1
242 1
243 1
244 1
245 1
246 1
247 1
248 1
249 1
250 1
251 1
252 1
253 1
254 1
255 1
256 1
257 1
258 1
259 1
260 1
261 1
262 1
263 1
264 1
265 1
266 1
267 1
268 1
269 1
270 1
271 1
272 1
273 1
274 1
275 1
276 1
277 1
278 1
279 1
280 1
281 1
282 1
283 1
284 1
285 1
286 1
287 1
288 1
289 1
290 1
291 1
292 1
293 1
294 1
295 1
296 1
297 1
298 1
299 1
300 1
301 1
302 1
303 1
304 1
305 1
306 1
307 1
308 1
309 1
310 1
311 1
312 1
313 1
314 1
315 1
316 1
317 1
318 1
319 1
320 1
321 1
322 1
323 1
324 1
325 1
326 1
327 1
328 1
329 1
330 1
331 1
332 1
333 1
334 1
335 1
336 1
337 1
338 1
339 1
340 1
341 1
342 1
343 1
344 1
345 1
346 1
347 1
348 1
349 1
350 1
351 1
352 1
353 1
354 1
355 1
356 1
357 1
358 1
359 1
360 1
361 1
362 1
363 1
364 1
365 1
366 1
367 1
368 1
369 1
370 1
371 1
372 1
373 1
374 1
375 1
376 1
377 1
378 1
379 1
380 1
381 1
382 1
383 1
384 1
385 1
386 1
387 1
388 1
389 1
390 1
391 1
392 1
393 1
394 1
395 1
396 1
397 1
398 1
399 1
400 1
401 1
402 1
403 1
404 1
405 1
406 1
407 1
408 1
409 1
410 1
411 1
412 1
413 1
414 1
415 1
416 1
417 1
418 1
419 1
420 1
421 1
422 1
423 1
424 1
425 1
426 1
427 1
428 1
429 1
430 1
431 1
432 1
433 1
434 1
435 1
436 1
437 1
438 1
439 1
440 1
441 1
442 1
443 1
444 1
445 1
446 1
447 1
448 1
449 1
450 1
451 1
452 1
453 1
454 1
455 1
456 1
457 1
458 1
459 1
460 1
461 1
462 1
463 1
464 1
465 1
466 1
467 1
468 1
469 1
470 1
471 1
472 1
473 1
474 1
475 1
476 1
477 1
478 1
479 1
480 1
481 1
482 1
483 1
484 1
485 1
486 1
487 1
488 1
489 1
490 1
491 1
492 1
493 1
494 1
495 1
496 1
497 1
498 1
499 1
500 1
501 1
502 1
503 1
504 1
505 1
506 1
507 1
508 1
509 1
510 1
511 1
512 1
513 1
514 1
515 1
516 1
517 1
518 1
519 1
520 1
521 1
522 1
523 1
524 1
525 1
526 1
527 1
528 1
529 1
530 1
531 1
532 1
533 1
534 1
535 1
536 1
537 1
538 1
539 1
540 1
541 1
542 1
543 1
544 1
545 1
546 1
547 1
548 1
549 1
550 1
551 1
552 1
553 1
554 1
555 1
556 1
557 1
558 1
559 1
560 1
561 1
562 1
563 1
564 1
565 1
566 1
567 1
568 1
569 1
570 1
571 1
572 1
573 1
574 1
575 1
576 1
577 1
578 1
579 1
580 1
581 1
582 1
583 1
584 1
585 1
586 1
587 1
588 1
589 1
590 1
591 1
592 1
593 1
594 1
595 1
596 1
597 1
598 1
599 1
600 1
601 1
602 1
603 1
604 1
605 1
606 1
607 1
608 1
609 1
610 1
611 1
612 1
613 1
614 1
615 1
616 1
617 1
618 1
619 1
620 1
621 1
622 1
623 1
624 1
625 1
626 1
627 1
628 1
629 1
630 1
631 1
632 1
633 1
634 1
635 1
636 1
637 1
638 1
639 1
640 1
641 1
642 1
643 1
644 1
645 1
646 1
647 1
648 1
649 1
650 1
651 1
652 1
653 1
654 1
655 1
656 1
657 1
658 1
659 1
660 1
661 1
662 1
663 1
664 1
665 1
666 1
667 1
668 1
669 1
670 1
671 1
672 1
673 1
674 1
675 1
676 1
677 1
678 1
679 1
680 1
681 1
682 1
683 1
684 1
685 1
686 1
687 1
688 1
689 1
690 1
691 1
692 1
693 1
694 1
695 1
696 1
697 1
698 1
699 1
700 1
701 1
702 1
703 1
704 1
705 1
706 1
707 1
708 1
709 1
710 1
711 1
712 1
713 1
714 1
715 1
716 1
717 1
718 1
719 1
720 1
721 1
722 1
723 1
724 1
725 1
726 1
727 1
728 1
729 1
730 1
731 1
732 1
733 1
734 1
735 1
736 1
737 1
738 1
739 1
740 1
741 1
742 1
743 1
744 1
745 1
746 1
747 1
748 1
749 1
750 1
751 1
752 1
753 1
754 1
755 1
756 1
757 1
758 1
759 1
760 1
761 1
762 1
763 1
764 1
765 1
766 1
767 1
768 1
769 1
770 1
771 1
772 1
773 1
774 1
775 1
776 1
777 1
778 1
779 1
780 1
781 1
782 1
783 1
784 1
785 1
786 1
787 1
788 1
789 1
790 1
791 1
792 1
793 1
794 1
795 1
796 1
797 1
798 1
799 1
800 1
801 1
802 1
803 1
804 1
805 1
806 1
807 1
808 1
809 1
810 1
811 1
812 1
813 1
814 1
815 1
816 1
817 1
818 1
819 1
820 1
821 1
822 1
823 1
824 1
825 1
826 1
827 1
828 1
829 1
830 1
831 1
832 1
833 1
834 1
835 1
836 1
837 1
838 1
839 1
840 1
841 1
842 1
843 1
844 1
845 1
846 1
847 1
848 1
849 1
850 1
851 1
852 1
853 1
854 1
855 1
856 1
857 1
858 1
859 1
860 1
861 1
862 1
863 1
864 1
865 1
866 1
867 1
868 1
869 1
870 1
871 1
872 1
873 1
874 1
875 1
876 1
877 1
878 1
879 1
880 1
881 1
882 1
883 1
884 1
885 1
886 1
887 1
888 1
889 1
890 1
891 1
892 1
893 1
894 1
895 1
896 1
897 1
898 1
899 1
900 1
901 1
902 1
903 1
904 1
905 1
906 1
907 1
908 1
909 1
910 1
911 1
912 1
913 1
914 1
915 1
916 1
917 1
918 1
919 1
920 1
921 1
922 1
923 1
924 1
925 1
926 1
927 1
928 1
929 1
930 1
931 1
932 1
933 1
934 1
935 1
936 1
937 1
938 1
939 1
940 1
941 1
942 1
943 1
944 1
945 1
946 1
947 1
948 1
949 1
950 1
951 1
952 1
953 1
954 1
955 1
956 1
957 1
DEPOT_SECTION
1
-1
EOF
